Normalized Data/p10_25_normalized_splitx10_0.vrp
NAME:p10_25_NORMALIZED_splitx10_
BEST_KNOWN: 0
COMMENT: 0
DIMENSION: 812
CAPACITY: 1000
EDGE_WEIGHT_FORMAT: FUNCTION
EDGE_WEIGHT_TYPE: EXACT_2D
NODE_COORD_SECTION
1 0.00000 0.00000
2 -12 9
3 -12 9
4 -12 9
5 -12 9
6 -12 9
7 -33 -37
8 -33 -37
9 -33 -37
10 -33 -37
11 -33 -37
12 -49 10
13 -49 10
14 -49 10
15 -26 5
16 -26 5
17 -26 5
18 -26 5
19 -26 5
20 -26 5
21 -50 17
22 -50 17
23 33 9
24 33 9
25 33 9
26 33 9
27 33 9
28 33 9
29 30 -17
30 30 -17
31 30 -17
32 30 -17
33 30 -17
34 10 -39
35 10 -39
36 10 -39
37 10 -39
38 -23 -2
39 -23 -2
40 -23 -2
41 -23 -2
42 -23 -2
43 -23 -2
44 34 29
45 34 29
46 34 29
47 34 29
48 34 29
49 -7 40
50 -7 40
51 -7 40
52 6 19
53 6 19
54 6 19
55 6 19
56 6 19
57 16 -40
58 16 -40
59 20 23
60 20 23
61 -31 33
62 -31 33
63 -31 33
64 19 -30
65 19 -30
66 19 -30
67 12 -9
68 12 -9
69 12 -9
70 12 -9
71 12 -9
72 12 -9
73 -27 28
74 -27 28
75 -27 28
76 -27 28
77 -48 -39
78 -48 -39
79 14 45
80 14 45
81 14 45
82 14 45
83 14 45
84 37 5
85 37 5
86 37 5
87 -6 -34
88 -6 -34
89 -6 -34
90 -6 -34
91 -6 -34
92 -6 -34
93 21 15
94 21 15
95 21 15
96 21 15
97 -7 40
98 -7 40
99 -7 40
100 -7 40
101 -7 40
102 -35 -23
103 -35 -23
104 -35 -23
105 41 -5
106 41 -5
107 41 -5
108 41 -5
109 41 -5
110 41 -5
111 -30 -9
112 -30 -9
113 -30 -9
114 27 23
115 27 23
116 27 23
117 27 23
118 26 2
119 26 2
120 26 2
121 26 2
122 -20 -25
123 -20 -25
124 -20 -25
125 -20 -25
126 -16 -40
127 -16 -40
128 -16 -40
129 11 38
130 11 38
131 11 38
132 11 38
133 -5 -44
134 -5 -44
135 -5 -44
136 -5 -44
137 -5 -44
138 -5 -44
139 -32 -48
140 -32 -48
141 -32 -48
142 11 35
143 11 35
144 12 2
145 12 2
146 12 2
147 12 2
148 12 2
149 12 2
150 -14 -35
151 -14 -35
152 -14 -35
153 -14 -35
154 -14 -35
155 -14 -35
156 -16 -9
157 -16 -9
158 -16 -9
159 11 40
160 11 40
161 11 40
162 11 40
163 11 40
164 11 40
165 11 40
166 15 4
167 15 4
168 15 4
169 15 4
170 15 4
171 22 9
172 22 9
173 -37 40
174 -37 40
175 -37 40
176 -37 40
177 -37 40
178 -37 40
179 -10 -39
180 -10 -39
181 -10 -39
182 -10 -39
183 -10 -39
184 -3 -36
185 -3 -36
186 -3 -36
187 -3 -36
188 3 -23
189 3 -23
190 3 -23
191 3 -23
192 3 -23
193 -12 -35
194 -12 -35
195 -12 -35
196 -12 -35
197 -12 -35
198 -12 -35
199 27 -16
200 27 -16
201 27 -16
202 -3 50
203 -3 50
204 -3 50
205 -3 50
206 36 25
207 36 25
208 36 25
209 36 25
210 36 25
211 35 -16
212 35 -16
213 35 -16
214 35 -16
215 35 -16
216 -22 -42
217 -22 -42
218 -22 -42
219 -22 -42
220 27 -46
221 27 -46
222 27 -46
223 27 -46
224 27 -46
225 27 -46
226 15 -37
227 15 -37
228 15 -37
229 15 -37
230 35 43
231 35 43
232 35 43
233 35 43
234 35 43
235 -16 -33
236 -16 -33
237 -16 -33
238 -16 -33
239 -16 -33
240 -16 -33
241 -46 -46
242 -46 -46
243 -46 -46
244 46 -30
245 46 -30
246 46 -30
247 24 -24
248 24 -24
249 24 -24
250 24 -24
251 -31 10
252 -31 10
253 38 -17
254 38 -17
255 38 -17
256 38 -17
257 36 -8
258 36 -8
259 36 -8
260 36 -8
261 -29 -26
262 -29 -26
263 -29 -26
264 -29 -26
265 -29 -26
266 -29 -26
267 39 -39
268 39 -39
269 39 -39
270 39 -39
271 -1 20
272 -1 20
273 -1 20
274 -1 20
275 -1 20
276 -1 20
277 39 -11
278 39 -11
279 39 -11
280 39 -11
281 39 -11
282 -3 11
283 -3 11
284 -3 11
285 -3 11
286 19 32
287 19 32
288 19 32
289 19 32
290 19 32
291 19 32
292 -49 34
293 -49 34
294 13 -48
295 13 -48
296 13 -48
297 13 -48
298 34 38
299 34 38
300 34 38
301 34 38
302 -21 37
303 -21 37
304 -21 37
305 -21 37
306 -21 37
307 -45 -10
308 -45 -10
309 -45 -10
310 -45 -10
311 -45 -10
312 -18 -38
313 -18 -38
314 -18 -38
315 -37 -48
316 -37 -48
317 -37 -48
318 -37 -48
319 23 4
320 23 4
321 23 4
322 23 4
323 23 4
324 23 4
325 -20 -35
326 -20 -35
327 -20 -35
328 -20 -35
329 26 46
330 26 46
331 26 46
332 26 46
333 28 33
334 28 33
335 28 33
336 28 33
337 -18 -9
338 -18 -9
339 -18 -9
340 -25 -10
341 -25 -10
342 -25 -10
343 -25 -10
344 -25 -10
345 -28 33
346 -28 33
347 -28 33
348 -28 33
349 -28 33
350 -28 33
351 -7 38
352 -7 38
353 -7 38
354 -7 38
355 -7 38
356 -7 38
357 -7 38
358 -2 -48
359 -2 -48
360 -2 -48
361 -2 -48
362 -10 -7
363 -10 -7
364 -10 -7
365 -10 -7
366 -10 -7
367 -24 -19
368 -24 -19
369 -24 -19
370 49 46
371 49 46
372 49 46
373 -17 -33
374 -17 -33
375 -17 -33
376 22 26
377 22 26
378 22 26
379 22 26
380 22 26
381 11 33
382 11 33
383 11 33
384 11 33
385 -22 -48
386 -22 -48
387 -22 -48
388 -22 -48
389 -22 -48
390 -22 -48
391 10 47
392 10 47
393 10 47
394 -9 26
395 -9 26
396 -9 26
397 -9 26
398 -42 21
399 -42 21
400 -42 21
401 -42 21
402 -42 21
403 -15 -47
404 -15 -47
405 -36 12
406 -36 12
407 -36 12
408 -36 12
409 -36 12
410 -36 12
411 6 13
412 6 13
413 6 13
414 6 13
415 6 13
416 6 13
417 -12 -30
418 -12 -30
419 -3 -42
420 -3 -42
421 -3 -42
422 -3 -42
423 -13 -10
424 -13 -10
425 48 23
426 48 23
427 48 23
428 48 23
429 48 23
430 48 23
431 5 49
432 5 49
433 5 49
434 5 49
435 26 36
436 26 36
437 26 36
438 26 36
439 -23 -7
440 -23 -7
441 -23 -7
442 -23 -7
443 -23 -7
444 -13 -31
445 -13 -31
446 -13 -31
447 10 -2
448 10 -2
449 -23 -39
450 -23 -39
451 -23 -39
452 -23 -39
453 -12 30
454 -12 30
455 -12 30
456 -46 -20
457 -46 -20
458 36 50
459 36 50
460 36 50
461 42 17
462 42 17
463 42 17
464 31 -29
465 31 -29
466 34 18
467 34 18
468 34 18
469 -28 -26
470 -28 -26
471 -28 -26
472 -28 -26
473 -45 37
474 -45 37
475 6 38
476 6 38
477 6 38
478 -25 32
479 -25 32
480 -25 32
481 -25 32
482 -25 32
483 34 44
484 34 44
485 34 44
486 34 44
487 34 44
488 -15 -28
489 -15 -28
490 -15 -28
491 -15 -28
492 44 4
493 44 4
494 44 4
495 44 4
496 44 4
497 44 4
498 -24 19
499 -24 19
500 -24 19
501 -24 19
502 -24 19
503 4 45
504 4 45
505 4 45
506 4 45
507 -29 7
508 -29 7
509 14 35
510 14 35
511 14 35
512 14 35
513 14 35
514 18 39
515 18 39
516 18 39
517 18 39
518 -45 -21
519 -45 -21
520 -45 -21
521 -45 -21
522 -45 -21
523 -45 -21
524 -3 -11
525 -3 -11
526 -3 -11
527 -3 -11
528 -3 -11
529 -32 -8
530 -32 -8
531 -32 -8
532 -16 -19
533 -16 -19
534 -16 -19
535 -16 -19
536 -16 -19
537 4 18
538 4 18
539 -29 0
540 -29 0
541 -29 0
542 -29 0
543 27 -39
544 27 -39
545 27 -39
546 -44 32
547 -44 32
548 -44 32
549 -44 32
550 -8 47
551 -8 47
552 -8 47
553 -8 47
554 -8 47
555 -8 47
556 -8 47
557 -13 49
558 -13 49
559 -14 49
560 -14 49
561 -14 49
562 -14 49
563 -50 -50
564 -50 -50
565 -50 -50
566 -50 -50
567 -50 -50
568 -50 -50
569 -8 41
570 -8 41
571 -8 41
572 13 -20
573 13 -20
574 13 -20
575 13 -20
576 -38 -13
577 -38 -13
578 -38 -13
579 -38 -13
580 -38 -13
581 11 31
582 11 31
583 11 31
584 11 31
585 11 31
586 -35 45
587 -35 45
588 -35 45
589 -35 45
590 39 50
591 39 50
592 39 50
593 39 50
594 39 50
595 -18 8
596 -18 8
597 -18 8
598 -18 8
599 34 17
600 34 17
601 34 17
602 34 17
603 34 17
604 34 17
605 -5 -10
606 -5 -10
607 -5 -10
608 -5 -10
609 -5 -10
610 -16 45
611 -16 45
612 -16 45
613 -16 45
614 18 43
615 18 43
616 18 43
617 18 43
618 18 43
619 18 43
620 18 43
621 -50 -50
622 -50 -50
623 -50 -50
624 43 -35
625 43 -35
626 43 -35
627 43 -35
628 43 -35
629 -14 50
630 -14 50
631 -29 2
632 -29 2
633 -29 2
634 -29 2
635 13 13
636 31 33
637 31 33
638 31 33
639 -27 20
640 -27 20
641 18 -3
642 18 -3
643 37 38
644 37 38
645 37 38
646 37 38
647 37 38
648 17 -50
649 17 -50
650 17 -50
651 19 44
652 19 44
653 19 44
654 19 44
655 19 44
656 19 44
657 -41 21
658 -41 21
659 -41 21
660 -2 25
661 -2 25
662 -2 25
663 -2 25
664 -2 25
665 -33 -34
666 -33 -34
667 -33 -34
668 33 48
669 33 48
670 33 48
671 -8 10
672 -8 10
673 9 21
674 9 21
675 8 15
676 8 15
677 8 15
678 8 15
679 18 -13
680 18 -13
681 18 -13
682 18 -13
683 18 -13
684 18 -13
685 -11 37
686 -11 37
687 -11 37
688 -11 37
689 -11 37
690 -22 26
691 -22 26
692 -22 26
693 -22 26
694 -22 26
695 -31 -33
696 -31 -33
697 -31 -33
698 -31 -33
699 -31 -33
700 46 30
701 46 30
702 46 30
703 46 30
704 46 30
705 -37 4
706 -37 4
707 -37 4
708 -39 0
709 -39 0
710 9 19
711 9 19
712 9 19
713 9 19
714 38 6
715 38 6
716 38 6
717 38 6
718 38 6
719 7 50
720 7 50
721 7 50
722 7 50
723 7 50
724 23 -16
725 23 -16
726 23 -16
727 23 -16
728 23 -16
729 23 -16
730 -14 -40
731 -14 -40
732 -14 -40
733 -14 -40
734 -14 -40
735 -14 -40
736 -36 -3
737 -36 -3
738 6 12
739 6 12
740 -24 -38
741 -24 -38
742 -24 -38
743 -24 -38
744 -33 35
745 -33 35
746 -33 35
747 -33 35
748 -33 35
749 -33 35
750 45 -28
751 29 -8
752 29 -8
753 29 -8
754 29 -8
755 29 -8
756 29 -8
757 12 -3
758 12 -3
759 12 -3
760 12 -3
761 12 -3
762 -12 -32
763 -12 -32
764 -12 -32
765 -12 -32
766 36 -4
767 36 -4
768 36 -4
769 36 -4
770 40 -41
771 40 -41
772 9 -34
773 9 -34
774 9 -34
775 9 -34
776 9 -34
777 44 2
778 44 2
779 44 2
780 44 2
781 44 2
782 44 2
783 -45 -28
784 -45 -28
785 -45 -28
786 29 21
787 29 21
788 29 21
789 29 21
790 29 21
791 -30 3
792 -30 3
793 -30 3
794 38 -8
795 38 -8
796 38 -8
797 23 25
798 23 25
799 -8 -11
800 -8 -11
801 27 14
802 27 14
803 27 14
804 27 14
805 -20 5
806 -20 5
807 -37 9
808 -37 9
809 -37 9
810 -37 9
811 29 -17
812 29 -17
DEMAND_SECTION
1 0
2 100
3 50
4 10
5 10
6 10
7 200
8 200
9 10
10 10
11 10
12 200
13 100
14 10
15 200
16 50
17 10
18 10
19 10
20 10
21 200
22 100
23 200
24 100
25 50
26 10
27 10
28 10
29 200
30 50
31 10
32 10
33 10
34 200
35 100
36 50
37 10
38 200
39 100
40 50
41 10
42 10
43 10
44 200
45 200
46 50
47 10
48 10
49 200
50 100
51 10
52 200
53 200
54 50
55 10
56 10
57 200
58 200
59 200
60 100
61 100
62 50
63 10
64 200
65 100
66 50
67 200
68 100
69 10
70 10
71 10
72 10
73 200
74 100
75 10
76 10
77 200
78 200
79 100
80 50
81 10
82 10
83 10
84 200
85 100
86 50
87 200
88 100
89 50
90 10
91 10
92 10
93 200
94 200
95 10
96 10
97 200
98 10
99 10
100 10
101 10
102 200
103 100
104 50
105 200
106 100
107 10
108 10
109 10
110 10
111 200
112 200
113 10
114 200
115 50
116 10
117 10
118 200
119 200
120 10
121 10
122 200
123 200
124 10
125 10
126 100
127 50
128 10
129 200
130 50
131 10
132 10
133 200
134 200
135 50
136 10
137 10
138 10
139 200
140 200
141 50
142 200
143 10
144 200
145 200
146 50
147 10
148 10
149 10
150 200
151 200
152 10
153 10
154 10
155 10
156 200
157 200
158 10
159 200
160 100
161 50
162 10
163 10
164 10
165 10
166 200
167 10
168 10
169 10
170 10
171 100
172 50
173 200
174 200
175 10
176 10
177 10
178 10
179 200
180 200
181 50
182 10
183 10
184 100
185 50
186 10
187 10
188 100
189 10
190 10
191 10
192 10
193 200
194 100
195 50
196 10
197 10
198 10
199 200
200 100
201 10
202 200
203 100
204 50
205 10
206 100
207 50
208 10
209 10
210 10
211 200
212 100
213 50
214 10
215 10
216 100
217 50
218 10
219 10
220 200
221 200
222 50
223 10
224 10
225 10
226 100
227 10
228 10
229 10
230 200
231 100
232 10
233 10
234 10
235 200
236 200
237 10
238 10
239 10
240 10
241 200
242 50
243 10
244 200
245 100
246 10
247 200
248 100
249 50
250 10
251 200
252 50
253 200
254 200
255 50
256 10
257 200
258 200
259 50
260 10
261 200
262 100
263 50
264 10
265 10
266 10
267 100
268 50
269 10
270 10
271 200
272 100
273 10
274 10
275 10
276 10
277 200
278 200
279 10
280 10
281 10
282 200
283 100
284 50
285 10
286 100
287 50
288 10
289 10
290 10
291 10
292 200
293 100
294 100
295 10
296 10
297 10
298 100
299 10
300 10
301 10
302 100
303 10
304 10
305 10
306 10
307 200
308 200
309 50
310 10
311 10
312 200
313 200
314 10
315 200
316 100
317 10
318 10
319 200
320 100
321 10
322 10
323 10
324 10
325 200
326 200
327 10
328 10
329 200
330 50
331 10
332 10
333 200
334 200
335 50
336 10
337 200
338 200
339 10
340 200
341 50
342 10
343 10
344 10
345 200
346 200
347 10
348 10
349 10
350 10
351 200
352 100
353 50
354 10
355 10
356 10
357 10
358 200
359 200
360 50
361 10
362 100
363 10
364 10
365 10
366 10
367 200
368 50
369 10
370 200
371 10
372 10
373 200
374 50
375 10
376 100
377 50
378 10
379 10
380 10
381 200
382 10
383 10
384 10
385 200
386 100
387 50
388 10
389 10
390 10
391 200
392 100
393 50
394 200
395 100
396 10
397 10
398 200
399 100
400 50
401 10
402 10
403 200
404 200
405 200
406 50
407 10
408 10
409 10
410 10
411 200
412 50
413 10
414 10
415 10
416 10
417 100
418 50
419 200
420 200
421 10
422 10
423 100
424 50
425 200
426 200
427 50
428 10
429 10
430 10
431 200
432 200
433 50
434 10
435 200
436 10
437 10
438 10
439 100
440 10
441 10
442 10
443 10
444 200
445 50
446 10
447 200
448 50
449 100
450 50
451 10
452 10
453 200
454 200
455 10
456 200
457 200
458 200
459 100
460 10
461 100
462 50
463 10
464 200
465 10
466 100
467 10
468 10
469 100
470 10
471 10
472 10
473 200
474 100
475 200
476 200
477 50
478 200
479 200
480 50
481 10
482 10
483 100
484 50
485 10
486 10
487 10
488 200
489 10
490 10
491 10
492 100
493 50
494 10
495 10
496 10
497 10
498 200
499 200
500 10
501 10
502 10
503 200
504 50
505 10
506 10
507 200
508 100
509 200
510 100
511 50
512 10
513 10
514 200
515 100
516 50
517 10
518 200
519 100
520 10
521 10
522 10
523 10
524 200
525 10
526 10
527 10
528 10
529 200
530 100
531 10
532 100
533 50
534 10
535 10
536 10
537 200
538 10
539 200
540 50
541 10
542 10
543 200
544 100
545 10
546 200
547 10
548 10
549 10
550 200
551 200
552 50
553 10
554 10
555 10
556 10
557 200
558 10
559 200
560 100
561 50
562 10
563 200
564 200
565 10
566 10
567 10
568 10
569 100
570 50
571 10
572 100
573 10
574 10
575 10
576 200
577 200
578 50
579 10
580 10
581 200
582 200
583 10
584 10
585 10
586 200
587 200
588 10
589 10
590 200
591 100
592 50
593 10
594 10
595 200
596 100
597 10
598 10
599 100
600 50
601 10
602 10
603 10
604 10
605 100
606 10
607 10
608 10
609 10
610 100
611 10
612 10
613 10
614 200
615 200
616 50
617 10
618 10
619 10
620 10
621 200
622 200
623 50
624 200
625 10
626 10
627 10
628 10
629 200
630 200
631 200
632 100
633 50
634 10
635 200
636 200
637 200
638 50
639 100
640 50
641 200
642 100
643 100
644 10
645 10
646 10
647 10
648 200
649 50
650 10
651 200
652 100
653 10
654 10
655 10
656 10
657 200
658 10
659 10
660 200
661 200
662 50
663 10
664 10
665 200
666 100
667 50
668 200
669 200
670 100
671 200
672 200
673 200
674 200
675 200
676 100
677 50
678 10
679 200
680 50
681 10
682 10
683 10
684 10
685 200
686 200
687 50
688 10
689 10
690 200
691 200
692 10
693 10
694 10
695 200
696 100
697 50
698 10
699 10
700 100
701 10
702 10
703 10
704 10
705 100
706 50
707 10
708 100
709 50
710 200
711 200
712 10
713 10
714 200
715 10
716 10
717 10
718 10
719 200
720 100
721 50
722 10
723 10
724 200
725 100
726 50
727 10
728 10
729 10
730 200
731 100
732 10
733 10
734 10
735 10
736 200
737 100
738 200
739 10
740 200
741 10
742 10
743 10
744 200
745 100
746 10
747 10
748 10
749 10
750 200
751 200
752 200
753 10
754 10
755 10
756 10
757 200
758 200
759 50
760 10
761 10
762 200
763 200
764 50
765 10
766 200
767 10
768 10
769 10
770 200
771 50
772 100
773 50
774 10
775 10
776 10
777 200
778 200
779 10
780 10
781 10
782 10
783 200
784 200
785 50
786 200
787 100
788 10
789 10
790 10
791 200
792 200
793 10
794 200
795 100
796 10
797 200
798 10
799 100
800 50
801 200
802 200
803 50
804 10
805 200
806 200
807 200
808 100
809 10
810 10
811 200
812 50
DEPOT_SECTION
1
-1
EOF