Normalized Data/p10_25_normalized_splitx10_0.sol
811 -2 4 639 638 74 75 73 72 477 479 481 478 480 -5 1 3 500 501 497 498 499 691 689 690 693 692 -7 8 6 664 665 696 695 697 698 470 468 -9 10 316 317 314 315 240 76 77 365 364 -19 16 15 17 18 14 507 506 791 792 790 -23 27 26 24 22 25 717 716 714 715 713 84 85 83 -38 37 39 42 41 40 539 541 538 632 630 631 633 -44 46 45 43 47 635 636 379 375 -55 52 53 54 51 536 537 270 271 272 274 -59 797 796 333 334 332 335 435 434 436 437 -61 62 60 747 748 745 743 746 744 347 348 346 344 345 349 283 -69 70 68 67 32 28 29 31 30 212 210 213 211 214 753 750 -71 66 641 640 758 757 756 760 759 -93 94 92 95 800 801 803 171 170 -102 103 101 782 783 784 694 -110 111 112 736 735 707 708 706 704 540 -119 120 117 118 322 319 318 323 321 320 165 168 166 169 167 -130 129 160 161 721 720 722 718 719 430 433 432 431 504 505 -131 128 81 82 79 80 78 390 392 391 503 502 -135 137 133 136 132 134 418 419 186 185 183 -139 140 138 387 385 389 384 388 386 216 218 215 217 -144 148 147 146 143 145 446 447 -173 177 176 174 175 172 587 586 588 585 305 301 303 302 304 -181 182 179 178 180 88 90 91 89 86 87 188 191 187 190 189 -184 421 420 358 359 360 357 296 293 295 294 648 649 647 773 775 772 774 -196 195 197 194 193 192 149 327 326 324 325 -198 200 199 810 811 723 724 728 679 681 682 680 683 -204 201 202 203 550 554 555 551 552 553 549 611 610 612 609 -206 207 209 208 205 700 701 699 702 703 427 429 424 428 426 425 462 461 460 603 600 -228 226 227 225 57 56 34 33 35 36 771 -236 238 235 234 239 237 373 374 372 490 488 487 489 -242 241 563 565 622 564 562 567 620 621 566 666 -245 243 244 749 255 253 252 254 -248 269 266 267 268 769 770 627 623 625 624 626 463 464 727 726 725 -250 251 407 404 401 398 400 397 656 658 657 -265 263 261 260 262 264 469 471 122 124 123 121 799 798 -273 275 661 659 660 393 396 395 394 671 -278 277 276 279 280 108 104 105 106 107 109 765 768 767 766 -284 281 282 677 674 415 410 411 738 737 -289 669 667 668 328 331 329 330 614 617 -290 285 286 287 288 484 485 483 482 229 230 233 232 231 646 645 642 643 644 298 297 300 299 376 -337 336 338 156 155 157 422 423 -351 353 354 686 687 688 684 685 453 454 452 -352 355 350 356 570 569 568 49 99 97 98 48 96 100 50 662 663 -361 362 363 532 533 535 531 534 367 368 366 343 341 340 342 339 438 441 442 439 440 -377 378 486 458 459 457 593 592 590 591 589 369 370 371 637 -402 403 731 730 732 733 734 729 153 152 150 151 154 445 -405 406 408 409 399 292 291 472 473 545 546 548 547 -413 412 414 672 673 712 711 710 709 675 676 -416 417 764 762 763 761 443 444 604 605 606 608 607 -476 474 475 159 164 163 158 162 142 381 580 -510 509 508 141 380 382 383 581 582 584 583 -512 511 619 615 616 618 613 654 652 651 650 655 653 513 514 515 516 -517 519 520 518 521 522 455 456 578 576 577 -523 525 222 224 223 221 219 220 543 542 544 -526 524 527 125 126 127 313 312 311 450 448 451 449 742 739 741 740 -529 528 530 308 309 306 307 310 579 575 -556 557 628 629 558 561 560 559 -573 574 571 572 63 65 64 249 246 247 678 -634 58 115 116 113 114 786 787 785 788 789 -670 594 596 595 597 804 805 -705 13 12 11 20 21 808 809 807 806 -752 755 754 751 259 257 258 256 793 794 795 -777 776 778 779 780 781 496 492 493 491 494 495 601 598 602 599 466 467 465 802 0 





OBJ=
5688.766
BEST_KNOWN=
0.000